2107428
14 10 95892
10 16 21151
16 4 223221
4 19 238490
19 15 105167
15 8 67784
8 18 112034
18 5 90145
5 20 53722
20 11 34793
11 9 112115
9 13 45505
13 17 27808
17 3 20583
3 2 14476
2 1 106843
1 7 35813
7 12 158459
12 6 255761
6 14 287666
